objective value:                    -2.96659556187767
h-1,13                                           0.01 	(obj:0)
h-1,34                                           0.01 	(obj:0)
h-1,35                                           0.01 	(obj:0)
h-1,36                                           0.01 	(obj:0)
h-1,37                                           0.01 	(obj:0)
h-1,38                                           0.01 	(obj:0)
h-1,39                                           0.01 	(obj:0)
h-1,40                                           0.01 	(obj:0)
h-1,41                                           0.01 	(obj:0)
h-1,43                                           0.01 	(obj:0)
h-1,44                                           0.01 	(obj:0)
h-1,45                                           0.01 	(obj:0)
h-1,48                                           0.01 	(obj:0)
h-1,49                                           0.01 	(obj:0)
h-1,50                                           0.01 	(obj:0)
h-1,51                                           0.01 	(obj:0)
h-1,59                                           0.01 	(obj:0)
h-1,60                                           0.01 	(obj:0)
h-1,62                                           0.01 	(obj:0)
h-1,63                                           0.01 	(obj:0)
h-1,64                                           0.01 	(obj:0)
h-1,65                                           0.01 	(obj:0)
h-1,66                                           0.01 	(obj:0)
h-1,67                                           0.01 	(obj:0)
h-1,68                                           0.01 	(obj:0)
h-1,69                                           0.01 	(obj:0)
h-1,70                                           0.01 	(obj:0)
h-1,72                                           0.01 	(obj:0)
h-1,73                                           0.01 	(obj:0)
h-1,74                                           0.01 	(obj:0)
h-1,75                                           0.01 	(obj:0)
h-1,76                                           0.01 	(obj:0)
h-1,77                                           0.01 	(obj:0)
h-1,78                                           0.01 	(obj:0)
h-1,79                                           0.01 	(obj:0)
h-1,80                                           0.01 	(obj:0)
h-1,81                                           0.01 	(obj:0)
h-1,87                                           0.01 	(obj:0)
h-1,88                                           0.01 	(obj:0)
h-1,90                                           0.01 	(obj:0)
h-1,91                                           0.01 	(obj:0)
h-1,92                                           0.01 	(obj:0)
h-1,93                                           0.01 	(obj:0)
h-1,94                                           0.01 	(obj:0)
h-1,95                                           0.01 	(obj:0)
h-1,96                                           0.01 	(obj:0)
h-1,97                                           0.01 	(obj:0)
h-1,98                                           0.01 	(obj:0)
h-1,99                                           0.01 	(obj:0)
h-1,100                                          0.01 	(obj:0)
h-1,101                                          0.01 	(obj:0)
h-1,102                                          0.01 	(obj:0)
h-1,103                                          0.01 	(obj:0)
h-1,104                                          0.01 	(obj:0)
h-1,105                                          0.01 	(obj:0)
h-1,108                                          0.01 	(obj:0)
h-1,109                                          0.01 	(obj:0)
h-1,110                                          0.01 	(obj:0)
h-1,116                                          0.01 	(obj:0)
h-1,117                                          0.01 	(obj:0)
h-1,118                                          0.01 	(obj:0)
h-1,119                                          0.01 	(obj:0)
h-1,120                                          0.01 	(obj:0)
h-1,121                                          0.01 	(obj:0)
h-1,122                                          0.01 	(obj:0)
h-1,123                                          0.01 	(obj:0)
h-1,124                                          0.01 	(obj:0)
h-1,125                           0.00266062829174848 	(obj:0)
h-1,126                                          0.01 	(obj:0)
h-1,127                                          0.01 	(obj:0)
h-1,128                             0.139019613862038 	(obj:0)
h-1,129                                             1 	(obj:0)
h-1,130                             0.417450984716415 	(obj:0)
h-1,137                                          0.01 	(obj:0)
h-1,138                                          0.01 	(obj:0)
h-1,139                                          0.01 	(obj:0)
h-1,148                                          0.01 	(obj:0)
h-1,149                                          0.01 	(obj:0)
h-1,150                                          0.01 	(obj:0)
h-1,151                                          0.01 	(obj:0)
h-1,153                                          0.01 	(obj:0)
h-1,154                                          0.01 	(obj:0)
h-1,155                                          0.01 	(obj:0)
h-1,156                             0.351176480054855 	(obj:0)
h-1,157                             0.998235294818878 	(obj:0)
h-1,158                             0.331568638086319 	(obj:0)
h-1,159                                          0.01 	(obj:0)
h-1,161                                          0.01 	(obj:0)
h-1,167                                          0.01 	(obj:0)
h-1,170                                          0.01 	(obj:0)
h-1,171                                          0.01 	(obj:0)
h-1,174                                          0.01 	(obj:0)
h-1,175                                          0.01 	(obj:0)
h-1,176                                          0.01 	(obj:0)
h-1,180                                          0.01 	(obj:0)
h-1,182                                          0.01 	(obj:0)
h-1,183                                          0.01 	(obj:0)
h-1,184                             0.539411792755127 	(obj:0)
h-1,185                             0.955098042488098 	(obj:0)
h-1,186                                          0.01 	(obj:0)
h-1,189                                          0.01 	(obj:0)
h-1,197                                          0.01 	(obj:0)
h-1,198                                          0.01 	(obj:0)
h-1,199                                          0.01 	(obj:0)
h-1,202                                          0.01 	(obj:0)
h-1,203                                          0.01 	(obj:0)
h-1,205                                          0.01 	(obj:0)
h-1,206                                          0.01 	(obj:0)
h-1,207                                          0.01 	(obj:0)
h-1,209                                          0.01 	(obj:0)
h-1,211                             0.186470592617989 	(obj:0)
h-1,212                              0.96686274766922 	(obj:0)
h-1,213                             0.578235318660736 	(obj:0)
h-1,214                                          0.01 	(obj:0)
h-1,217                                          0.01 	(obj:0)
h-1,225                                          0.01 	(obj:0)
h-1,226                                          0.01 	(obj:0)
h-1,227                                          0.01 	(obj:0)
h-1,230                                          0.01 	(obj:0)
h-1,231                                          0.01 	(obj:0)
h-1,232                                          0.01 	(obj:0)
h-1,234                                          0.01 	(obj:0)
h-1,235                                          0.01 	(obj:0)
h-1,236                                          0.01 	(obj:0)
h-1,238                                          0.01 	(obj:0)
h-1,239                             0.339411774873734 	(obj:0)
h-1,240                                             1 	(obj:0)
h-1,241                              0.23705882370472 	(obj:0)
h-1,246                                          0.01 	(obj:0)
h-1,247                                          0.01 	(obj:0)
h-1,252                                          0.01 	(obj:0)
h-1,253                                          0.01 	(obj:0)
h-1,254                                          0.01 	(obj:0)
h-1,255                                          0.01 	(obj:0)
h-1,256                                          0.01 	(obj:0)
h-1,257                                          0.01 	(obj:0)
h-1,260                                          0.01 	(obj:0)
h-1,261                                          0.01 	(obj:0)
h-1,262                                          0.01 	(obj:0)
h-1,263                                          0.01 	(obj:0)
h-1,264                                          0.01 	(obj:0)
h-1,265                                          0.01 	(obj:0)
h-1,266                                          0.01 	(obj:0)
h-1,267                             0.802156875133514 	(obj:0)
h-1,268                             0.884509811401367 	(obj:0)
h-1,269                            0.0331372560560703 	(obj:0)
h-1,270                                          0.01 	(obj:0)
h-1,271                                          0.01 	(obj:0)
h-1,275                                          0.01 	(obj:0)
h-1,279                                          0.01 	(obj:0)
h-1,280                                          0.01 	(obj:0)
h-1,281                                          0.01 	(obj:0)
h-1,282                                          0.01 	(obj:0)
h-1,283                                          0.01 	(obj:0)
h-1,285                                          0.01 	(obj:0)
h-1,286                                          0.01 	(obj:0)
h-1,287                                          0.01 	(obj:0)
h-1,288                                          0.01 	(obj:0)
h-1,289                                          0.01 	(obj:0)
h-1,290                                          0.01 	(obj:0)
h-1,291                                          0.01 	(obj:0)
h-1,292                                          0.01 	(obj:0)
h-1,293                                          0.01 	(obj:0)
h-1,294                             0.135490203499794 	(obj:0)
h-1,295                             0.986078431606293 	(obj:0)
h-1,296                             0.857058832645416 	(obj:0)
h-1,297                                          0.01 	(obj:0)
h-1,298                                          0.01 	(obj:0)
h-1,299                                          0.01 	(obj:0)
h-1,300                                          0.01 	(obj:0)
h-1,301                                          0.01 	(obj:0)
h-1,303                                          0.01 	(obj:0)
h-1,307                                          0.01 	(obj:0)
h-1,308                                          0.01 	(obj:0)
h-1,309                                          0.01 	(obj:0)
h-1,310                                          0.01 	(obj:0)
h-1,311                                          0.01 	(obj:0)
h-1,312                                          0.01 	(obj:0)
h-1,314                                          0.01 	(obj:0)
h-1,315                                          0.01 	(obj:0)
h-1,317                                          0.01 	(obj:0)
h-1,319                                          0.01 	(obj:0)
h-1,322                             0.362549027204514 	(obj:0)
h-1,323                             0.986078431606293 	(obj:0)
h-1,324                             0.754705896377563 	(obj:0)
h-1,327                                          0.01 	(obj:0)
h-1,328                                          0.01 	(obj:0)
h-1,329                                          0.01 	(obj:0)
h-1,330                                          0.01 	(obj:0)
h-1,331                                          0.01 	(obj:0)
h-1,332                                          0.01 	(obj:0)
h-1,337                                          0.01 	(obj:0)
h-1,338                                          0.01 	(obj:0)
h-1,339                                          0.01 	(obj:0)
h-1,340                                          0.01 	(obj:0)
h-1,341                                          0.01 	(obj:0)
h-1,344                                          0.01 	(obj:0)
h-1,350                             0.539019634723663 	(obj:0)
h-1,351                             0.986078431606293 	(obj:0)
h-1,352                             0.291960796117783 	(obj:0)
h-1,355                                          0.01 	(obj:0)
h-1,356                                          0.01 	(obj:0)
h-1,357                                          0.01 	(obj:0)
h-1,358                                          0.01 	(obj:0)
h-1,359                                          0.01 	(obj:0)
h-1,360                                          0.01 	(obj:0)
h-1,361                                          0.01 	(obj:0)
h-1,362                                          0.01 	(obj:0)
h-1,365                                          0.01 	(obj:0)
h-1,366                                          0.01 	(obj:0)
h-1,367                                          0.01 	(obj:0)
h-1,368                                          0.01 	(obj:0)
h-1,377                             0.213529413342476 	(obj:0)
h-1,378                             0.919411768913269 	(obj:0)
h-1,379                             0.793921580314636 	(obj:0)
h-1,380                            0.0213725508749485 	(obj:0)
h-1,386                                          0.01 	(obj:0)
h-1,387                                          0.01 	(obj:0)
h-1,388                                          0.01 	(obj:0)
h-1,389                                          0.01 	(obj:0)
h-1,390                                          0.01 	(obj:0)
h-1,391                                          0.01 	(obj:0)
h-1,394                                          0.01 	(obj:0)
h-1,395                                          0.01 	(obj:0)
h-1,396                                          0.01 	(obj:0)
h-1,398                                          0.01 	(obj:0)
h-1,399                                          0.01 	(obj:0)
h-1,402                          0.000640349780872539 	(obj:0)
h-1,403                                          0.01 	(obj:0)
h-1,405                             0.476274510622025 	(obj:0)
h-1,406                                          0.99 	(obj:0)
h-1,407                             0.637058844566345 	(obj:0)
h-1,410                                          0.01 	(obj:0)
h-1,412                                          0.01 	(obj:0)
h-1,413                                          0.01 	(obj:0)
h-1,414                                          0.01 	(obj:0)
h-1,415                                          0.01 	(obj:0)
h-1,416                                          0.01 	(obj:0)
h-1,417                                          0.01 	(obj:0)
h-1,418                                          0.01 	(obj:0)
h-1,419                                          0.01 	(obj:0)
h-1,424                                          0.01 	(obj:0)
h-1,425                                          0.01 	(obj:0)
h-1,426                                          0.01 	(obj:0)
h-1,427                                          0.01 	(obj:0)
h-1,428                                          0.01 	(obj:0)
h-1,433                             0.660588254928589 	(obj:0)
h-1,434                             0.986078431606293 	(obj:0)
h-1,435                             0.307647069692612 	(obj:0)
h-1,440                                          0.01 	(obj:0)
h-1,441                                          0.01 	(obj:0)
h-1,443                                          0.01 	(obj:0)
h-1,444                                          0.01 	(obj:0)
h-1,445                                          0.01 	(obj:0)
h-1,446                                          0.01 	(obj:0)
h-1,447                                          0.01 	(obj:0)
h-1,451                                          0.01 	(obj:0)
h-1,452                                          0.01 	(obj:0)
h-1,453                                          0.01 	(obj:0)
h-1,454                                          0.01 	(obj:0)
h-1,455                                          0.01 	(obj:0)
h-1,456                                          0.01 	(obj:0)
h-1,457                                          0.01 	(obj:0)
h-1,458                                          0.01 	(obj:0)
h-1,460                            0.0841176488995552 	(obj:0)
h-1,461                             0.899803926944733 	(obj:0)
h-1,462                             0.833137264251709 	(obj:0)
h-1,463                                          0.01 	(obj:0)
h-1,465                                          0.01 	(obj:0)
h-1,467                                          0.01 	(obj:0)
h-1,468                                          0.01 	(obj:0)
h-1,469                                          0.01 	(obj:0)
h-1,471                                          0.01 	(obj:0)
h-1,472                                          0.01 	(obj:0)
h-1,473                                          0.01 	(obj:0)
h-1,474                                          0.01 	(obj:0)
h-1,475                                          0.01 	(obj:0)
h-1,477                                          0.01 	(obj:0)
h-1,478                                          0.01 	(obj:0)
h-1,479                                          0.01 	(obj:0)
h-1,480                                          0.01 	(obj:0)
h-1,481                                          0.01 	(obj:0)
h-1,482                                          0.01 	(obj:0)
h-1,483                                          0.01 	(obj:0)
h-1,484                                          0.01 	(obj:0)
h-1,485                                          0.01 	(obj:0)
h-1,486                                          0.01 	(obj:0)
h-1,487                                          0.01 	(obj:0)
h-1,488                             0.480588237047195 	(obj:0)
h-1,489                             0.986078431606293 	(obj:0)
h-1,490                             0.613529434204102 	(obj:0)
h-1,492                                          0.01 	(obj:0)
h-1,493                                          0.01 	(obj:0)
h-1,494                                          0.01 	(obj:0)
h-1,495                                          0.01 	(obj:0)
h-1,496                                          0.01 	(obj:0)
h-1,498                                          0.01 	(obj:0)
h-1,499                                          0.01 	(obj:0)
h-1,500                                          0.01 	(obj:0)
h-1,501                                          0.01 	(obj:0)
h-1,502                                          0.01 	(obj:0)
h-1,503                                          0.01 	(obj:0)
h-1,504                                          0.01 	(obj:0)
h-1,508                                          0.01 	(obj:0)
h-1,509                                          0.01 	(obj:0)
h-1,511                                          0.01 	(obj:0)
h-1,512                                          0.01 	(obj:0)
h-1,513                                          0.01 	(obj:0)
h-1,514                                          0.01 	(obj:0)
h-1,515                                          0.01 	(obj:0)
h-1,516                             0.602156887054443 	(obj:0)
h-1,517                                             1 	(obj:0)
h-1,518                             0.546862771511078 	(obj:0)
h-1,519                                          0.01 	(obj:0)
h-1,520                                          0.01 	(obj:0)
h-1,521                                          0.01 	(obj:0)
h-1,522                                          0.01 	(obj:0)
h-1,523                                          0.01 	(obj:0)
h-1,524                                          0.01 	(obj:0)
h-1,525                                          0.01 	(obj:0)
h-1,526                                          0.01 	(obj:0)
h-1,527                                          0.01 	(obj:0)
h-1,528                                          0.01 	(obj:0)
h-1,529                                          0.01 	(obj:0)
h-1,530                                          0.01 	(obj:0)
h-1,533                                          0.01 	(obj:0)
h-1,534                                          0.01 	(obj:0)
h-1,536                                          0.01 	(obj:0)
h-1,537                                          0.01 	(obj:0)
h-1,539                                          0.01 	(obj:0)
h-1,540                                          0.01 	(obj:0)
h-1,541                                          0.01 	(obj:0)
h-1,542                                          0.01 	(obj:0)
h-1,543                                          0.01 	(obj:0)
h-1,544                             0.904117653369904 	(obj:0)
h-1,545                                             1 	(obj:0)
h-1,546                             0.248823543787003 	(obj:0)
h-1,549                                          0.01 	(obj:0)
h-1,550                                          0.01 	(obj:0)
h-1,552                                          0.01 	(obj:0)
h-1,553                                          0.01 	(obj:0)
h-1,554                                          0.01 	(obj:0)
h-1,555                                          0.01 	(obj:0)
h-1,556                                          0.01 	(obj:0)
h-1,557                                          0.01 	(obj:0)
h-1,561                                          0.01 	(obj:0)
h-1,562                                          0.01 	(obj:0)
h-1,563                                          0.01 	(obj:0)
h-1,564                                          0.01 	(obj:0)
h-1,565                                          0.01 	(obj:0)
h-1,566                                          0.01 	(obj:0)
h-1,567                                          0.01 	(obj:0)
h-1,569                                          0.01 	(obj:0)
h-1,570                                          0.01 	(obj:0)
h-1,571                             0.249215686917305 	(obj:0)
h-1,572                             0.994313726425171 	(obj:0)
h-1,573                                             1 	(obj:0)
h-1,574                             0.268823543787003 	(obj:0)
h-1,575                                          0.01 	(obj:0)
h-1,578                                          0.01 	(obj:0)
h-1,579                                          0.01 	(obj:0)
h-1,580                                          0.01 	(obj:0)
h-1,581                                          0.01 	(obj:0)
h-1,582                                          0.01 	(obj:0)
h-1,583                                          0.01 	(obj:0)
h-1,584                                          0.01 	(obj:0)
h-1,585                                          0.01 	(obj:0)
h-1,593                                          0.01 	(obj:0)
h-1,594                                          0.01 	(obj:0)
h-1,595                                          0.01 	(obj:0)
h-1,597                                          0.01 	(obj:0)
h-1,598                                          0.01 	(obj:0)
h-1,599                             0.562941203117371 	(obj:0)
h-1,600                                             1 	(obj:0)
h-1,601                             0.813921580314636 	(obj:0)
h-1,602                            0.0217647061124444 	(obj:0)
h-1,604                                          0.01 	(obj:0)
h-1,605                                          0.01 	(obj:0)
h-1,606                                          0.01 	(obj:0)
h-1,607                                          0.01 	(obj:0)
h-1,608                                          0.01 	(obj:0)
h-1,609                                          0.01 	(obj:0)
h-1,610                                          0.01 	(obj:0)
h-1,611                                          0.01 	(obj:0)
h-1,612                                          0.01 	(obj:0)
h-1,613                                          0.01 	(obj:0)
h-1,614                                          0.01 	(obj:0)
h-1,618                                          0.01 	(obj:0)
h-1,619                                          0.01 	(obj:0)
h-1,621                                          0.01 	(obj:0)
h-1,622                                          0.01 	(obj:0)
h-1,623                                          0.01 	(obj:0)
h-1,624                                          0.01 	(obj:0)
h-1,625                                          0.01 	(obj:0)
h-1,626                            0.0492156876623631 	(obj:0)
h-1,627                             0.853137264251709 	(obj:0)
h-1,628                                             1 	(obj:0)
h-1,629                             0.484509805440903 	(obj:0)
h-1,630                                          0.01 	(obj:0)
h-1,631                                          0.01 	(obj:0)
h-1,636                                          0.01 	(obj:0)
h-1,637                                          0.01 	(obj:0)
h-1,638                                          0.01 	(obj:0)
h-1,639                                          0.01 	(obj:0)
h-1,640                                          0.01 	(obj:0)
h-1,641                                          0.01 	(obj:0)
h-1,647                                          0.01 	(obj:0)
h-1,651                                          0.01 	(obj:0)
h-1,653                                          0.01 	(obj:0)
h-1,654                           0.00960784383118152 	(obj:0)
h-1,655                             0.786470601558685 	(obj:0)
h-1,656                             0.700196096897125 	(obj:0)
h-1,657                            0.0492156876623631 	(obj:0)
h-1,658                                          0.01 	(obj:0)
h-1,659                                          0.01 	(obj:0)
h-1,663                                          0.01 	(obj:0)
h-1,664                                          0.01 	(obj:0)
h-1,665                                          0.01 	(obj:0)
h-1,666                                          0.01 	(obj:0)
h-1,667                                          0.01 	(obj:0)
h-1,668                                          0.01 	(obj:0)
h-1,669                                          0.01 	(obj:0)
h-1,684                                          0.01 	(obj:0)
h-1,685                                          0.01 	(obj:0)
h-1,686                                          0.01 	(obj:0)
h-1,687                                          0.01 	(obj:0)
h-1,688                                          0.01 	(obj:0)
h-1,689                                          0.01 	(obj:0)
h-1,691                                          0.01 	(obj:0)
h-1,692                                          0.01 	(obj:0)
h-1,693                                          0.01 	(obj:0)
h-1,694                                          0.01 	(obj:0)
h-1,695                                          0.01 	(obj:0)
h-1,696                                          0.01 	(obj:0)
h-1,697                                          0.01 	(obj:0)
h-1,698                                          0.01 	(obj:0)
h-1,706                                          0.01 	(obj:0)
h-1,713                                          0.01 	(obj:0)
h-1,715                                          0.01 	(obj:0)
h-1,716                                          0.01 	(obj:0)
h-1,717                                          0.01 	(obj:0)
h-1,718                                          0.01 	(obj:0)
h-1,725                                          0.01 	(obj:0)
h-1,726                                          0.01 	(obj:0)
h-1,728                                          0.01 	(obj:0)
h-1,733                                          0.01 	(obj:0)
h-1,734                                          0.01 	(obj:0)
h-1,735                                          0.01 	(obj:0)
h-1,736                                          0.01 	(obj:0)
h-1,737                                          0.01 	(obj:0)
h-1,738                                          0.01 	(obj:0)
h-1,739                                          0.01 	(obj:0)
h-1,740                                          0.01 	(obj:0)
h-1,741                                          0.01 	(obj:0)
h-1,742                                          0.01 	(obj:0)
h-1,743                                          0.01 	(obj:0)
h-1,744                                          0.01 	(obj:0)
h-1,745                                          0.01 	(obj:0)
h-1,746                                          0.01 	(obj:0)
h-1,747                                          0.01 	(obj:0)
h-1,748                                          0.01 	(obj:0)
h-1,750                                          0.01 	(obj:0)
h-1,751                                          0.01 	(obj:0)
h-1,752                                          0.01 	(obj:0)
h-1,762                                          0.01 	(obj:0)
h-1,763                                          0.01 	(obj:0)
h-1,764                                          0.01 	(obj:0)
h-1,765                                          0.01 	(obj:0)
h-1,766                                          0.01 	(obj:0)
h-1,767                                          0.01 	(obj:0)
h-1,769                                          0.01 	(obj:0)
h-1,770                                          0.01 	(obj:0)
h-1,771                                          0.01 	(obj:0)
h-1,772                                          0.01 	(obj:0)
h-1,773                                          0.01 	(obj:0)
h-1,774                                          0.01 	(obj:0)
h-1,776                                          0.01 	(obj:0)
h-1,777                                          0.01 	(obj:0)
h-1,778                                          0.01 	(obj:0)
h-1,782                                          0.01 	(obj:0)
z0,0                                 1.74271383288561 	(obj:0)
a0,0                                 1.90401151702602 	(obj:0)
z0,1                                 6.18342565619989 	(obj:0)
a0,1                                 6.18548321071496 	(obj:0)
z0,2                                 3.53101492713418 	(obj:0)
a0,2                                 3.55987199082604 	(obj:0)
z0,3                                 2.95837097062671 	(obj:0)
a0,3                                 3.00897458661338 	(obj:0)
z0,4                               -0.555523394954843 	(obj:0)
a0,4                                 0.45348404123311 	(obj:0)
z1,0                                 2.43432769093679 	(obj:0)
a1,0                                 2.51836191599878 	(obj:0)
z1,1                                  6.9647930453687 	(obj:0)
a1,1                                 6.96573921235783 	(obj:0)
z1,2                                   6.600471682435 	(obj:0)
a1,2                                 6.60183008614973 	(obj:0)
z1,3                                 9.49840798060915 	(obj:0)
a1,3                                 9.49848706511926 	(obj:0)
z1,4                                 3.58443591367759 	(obj:0)
a1,4                                 3.61181236853686 	(obj:0)
z2,0                                -8.18954717061905 	(obj:0)
a2,0                             0.000278649589758285 	(obj:0)
z2,1                                 5.99260444416344 	(obj:0)
a2,1                                 5.99509032385045 	(obj:-1)
z2,2                                 2.97888708166551 	(obj:0)
a2,2                                 3.02849476197278 	(obj:1)
z2,3                                 2.33175923688799 	(obj:0)
a2,3                                 2.42445309543037 	(obj:0)
z2,4                                -4.09391570003752 	(obj:0)
a2,4                               0.0165420451617584 	(obj:0)
z2,5                                -3.20167653674992 	(obj:0)
a2,5                               0.0398912742123111 	(obj:0)
z2,6                               -0.888380529806826 	(obj:0)
a2,6                                 0.34452219165728 	(obj:0)
z2,7                                0.243086665275081 	(obj:0)
a2,7                                0.822067734437574 	(obj:0)
z2,8                                 1.68543900298552 	(obj:0)
a2,8                                 1.85549784447489 	(obj:0)
z2,9                                -1.56285950098826 	(obj:0)
a2,9                                0.190239632244645 	(obj:0)
